NAME 
OBJSENSE MAX
ROWS
 N  OBJ
 L  packing[0]
 L  packing[1]
 L  packing[2]
 L  packing[3]
 L  packing[4]
 L  packing[5]
 L  packing[6]
 L  packing[7]
 L  packing[8]
 L  packing[9]
 L  packing[10]
 L  packing[11]
 L  packing[12]
 L  packing[13]
 L  packing[14]
 L  packing[15]
 L  packing[16]
 L  packing[17]
 L  packing[18]
 L  packing[19]
 L  packing[20]
 L  packing[21]
 L  packing[22]
 L  packing[23]
 L  packing[24]
 L  packing[25]
 L  packing[26]
 L  packing[27]
 L  packing[28]
 L  packing[29]
 L  packing[30]
 L  packing[31]
 L  packing[32]
 L  packing[33]
 L  packing[34]
 L  packing[35]
 L  packing[36]
 L  packing[37]
 L  packing[38]
 L  packing[39]
 L  packing[40]
 L  packing[41]
 L  packing[42]
 L  packing[43]
 L  packing[44]
 L  packing[45]
 L  packing[46]
 L  packing[47]
 L  packing[48]
 L  packing[49]
 L  R51     
COLUMNS
    MARKER    'MARKER'                 'INTORG'
    x[1]      OBJ       107
    x[1]      packing[0]  99
    x[1]      packing[1]  188
    x[1]      packing[2]  117
    x[1]      packing[3]  160
    x[1]      packing[6]  73
    x[1]      packing[7]  117
    x[1]      packing[8]  93
    x[1]      packing[9]  184
    x[1]      packing[10]  113
    x[1]      packing[11]  85
    x[1]      packing[12]  78
    x[1]      packing[14]  181
    x[1]      packing[15]  55
    x[1]      packing[16]  66
    x[1]      packing[17]  120
    x[1]      packing[19]  29
    x[1]      packing[20]  74
    x[1]      packing[22]  193
    x[1]      packing[23]  173
    x[1]      packing[24]  25
    x[1]      packing[25]  72
    x[1]      packing[26]  124
    x[1]      packing[27]  34
    x[1]      packing[30]  119
    x[1]      packing[31]  58
    x[1]      packing[32]  184
    x[1]      packing[33]  146
    x[1]      packing[34]  36
    x[1]      packing[35]  12
    x[1]      packing[36]  198
    x[1]      packing[37]  40
    x[1]      packing[38]  80
    x[1]      packing[40]  92
    x[1]      packing[41]  128
    x[1]      packing[42]  180
    x[1]      packing[43]  179
    x[1]      packing[44]  156
    x[1]      packing[45]  26
    x[1]      packing[46]  178
    x[1]      packing[47]  87
    x[1]      packing[48]  20
    x[1]      packing[49]  46
    x[1]      R51       1
    x[2]      OBJ       181
    x[2]      packing[0]  97
    x[2]      packing[1]  40
    x[2]      packing[2]  102
    x[2]      packing[3]  96
    x[2]      packing[4]  140
    x[2]      packing[5]  143
    x[2]      packing[7]  193
    x[2]      packing[8]  71
    x[2]      packing[9]  43
    x[2]      packing[10]  50
    x[2]      packing[11]  6
    x[2]      packing[12]  162
    x[2]      packing[15]  76
    x[2]      packing[16]  87
    x[2]      packing[17]  123
    x[2]      packing[18]  101
    x[2]      packing[19]  194
    x[2]      packing[21]  131
    x[2]      packing[22]  21
    x[2]      packing[25]  183
    x[2]      packing[27]  180
    x[2]      packing[28]  75
    x[2]      packing[29]  47
    x[2]      packing[32]  112
    x[2]      packing[33]  151
    x[2]      packing[34]  101
    x[2]      packing[35]  122
    x[2]      packing[36]  158
    x[2]      packing[37]  136
    x[2]      packing[38]  127
    x[2]      packing[39]  73
    x[2]      packing[40]  10
    x[2]      packing[41]  64
    x[2]      packing[42]  148
    x[2]      packing[43]  155
    x[2]      packing[44]  45
    x[2]      packing[46]  159
    x[2]      packing[47]  59
    x[2]      packing[48]  80
    x[2]      R51       1
    x[3]      OBJ       84
    x[3]      packing[0]  61
    x[3]      packing[1]  103
    x[3]      packing[2]  130
    x[3]      packing[3]  97
    x[3]      packing[4]  84
    x[3]      packing[5]  190
    x[3]      packing[6]  96
    x[3]      packing[7]  136
    x[3]      packing[9]  28
    x[3]      packing[11]  2
    x[3]      packing[12]  161
    x[3]      packing[13]  90
    x[3]      packing[14]  150
    x[3]      packing[15]  115
    x[3]      packing[16]  32
    x[3]      packing[17]  124
    x[3]      packing[18]  157
    x[3]      packing[19]  174
    x[3]      packing[20]  186
    x[3]      packing[22]  49
    x[3]      packing[23]  31
    x[3]      packing[26]  153
    x[3]      packing[28]  44
    x[3]      packing[29]  57
    x[3]      packing[31]  50
    x[3]      packing[32]  179
    x[3]      packing[33]  103
    x[3]      packing[37]  142
    x[3]      packing[38]  97
    x[3]      packing[39]  134
    x[3]      packing[40]  63
    x[3]      packing[41]  157
    x[3]      packing[42]  113
    x[3]      packing[43]  112
    x[3]      packing[44]  28
    x[3]      packing[45]  45
    x[3]      packing[46]  8
    x[3]      packing[47]  78
    x[3]      packing[49]  136
    x[4]      OBJ       109
    x[4]      packing[0]  2
    x[4]      packing[1]  112
    x[4]      packing[2]  47
    x[4]      packing[3]  12
    x[4]      packing[5]  84
    x[4]      packing[6]  193
    x[4]      packing[7]  24
    x[4]      packing[8]  77
    x[4]      packing[9]  43
    x[4]      packing[10]  129
    x[4]      packing[11]  92
    x[4]      packing[12]  166
    x[4]      packing[14]  17
    x[4]      packing[15]  59
    x[4]      packing[16]  160
    x[4]      packing[17]  96
    x[4]      packing[20]  69
    x[4]      packing[21]  29
    x[4]      packing[23]  122
    x[4]      packing[24]  31
    x[4]      packing[25]  142
    x[4]      packing[26]  73
    x[4]      packing[27]  143
    x[4]      packing[29]  179
    x[4]      packing[32]  104
    x[4]      packing[33]  110
    x[4]      packing[35]  8
    x[4]      packing[36]  121
    x[4]      packing[38]  166
    x[4]      packing[39]  38
    x[4]      packing[40]  90
    x[4]      packing[42]  175
    x[4]      packing[43]  93
    x[4]      packing[44]  68
    x[4]      packing[45]  147
    x[4]      packing[46]  75
    x[4]      packing[48]  88
    x[4]      packing[49]  84
    x[5]      OBJ       157
    x[5]      packing[1]  198
    x[5]      packing[4]  114
    x[5]      packing[5]  30
    x[5]      packing[6]  97
    x[5]      packing[7]  111
    x[5]      packing[8]  113
    x[5]      packing[9]  64
    x[5]      packing[12]  162
    x[5]      packing[13]  84
    x[5]      packing[14]  71
    x[5]      packing[15]  64
    x[5]      packing[16]  67
    x[5]      packing[17]  196
    x[5]      packing[18]  133
    x[5]      packing[19]  36
    x[5]      packing[21]  147
    x[5]      packing[22]  195
    x[5]      packing[23]  123
    x[5]      packing[25]  96
    x[5]      packing[27]  135
    x[5]      packing[29]  179
    x[5]      packing[30]  1
    x[5]      packing[31]  21
    x[5]      packing[34]  37
    x[5]      packing[35]  119
    x[5]      packing[36]  194
    x[5]      packing[37]  121
    x[5]      packing[39]  120
    x[5]      packing[40]  138
    x[5]      packing[41]  136
    x[5]      packing[42]  40
    x[5]      packing[43]  109
    x[5]      packing[44]  112
    x[5]      packing[45]  10
    x[5]      packing[47]  146
    x[5]      packing[48]  151
    x[5]      packing[49]  111
    x[5]      R51       1
    x[6]      OBJ       158
    x[6]      packing[1]  150
    x[6]      packing[3]  52
    x[6]      packing[4]  115
    x[6]      packing[5]  77
    x[6]      packing[6]  84
    x[6]      packing[7]  159
    x[6]      packing[9]  91
    x[6]      packing[10]  83
    x[6]      packing[11]  74
    x[6]      packing[12]  25
    x[6]      packing[13]  64
    x[6]      packing[15]  153
    x[6]      packing[17]  110
    x[6]      packing[18]  178
    x[6]      packing[19]  121
    x[6]      packing[21]  29
    x[6]      packing[23]  132
    x[6]      packing[24]  130
    x[6]      packing[25]  67
    x[6]      packing[26]  94
    x[6]      packing[27]  83
    x[6]      packing[28]  145
    x[6]      packing[29]  134
    x[6]      packing[30]  87
    x[6]      packing[31]  4
    x[6]      packing[32]  144
    x[6]      packing[34]  170
    x[6]      packing[35]  129
    x[6]      packing[36]  71
    x[6]      packing[37]  49
    x[6]      packing[38]  181
    x[6]      packing[39]  93
    x[6]      packing[40]  73
    x[6]      packing[41]  116
    x[6]      packing[42]  155
    x[6]      packing[44]  67
    x[6]      packing[45]  140
    x[6]      packing[46]  14
    x[6]      packing[48]  92
    x[6]      packing[49]  172
    x[6]      R51       1
    x[7]      OBJ       57
    x[7]      packing[0]  94
    x[7]      packing[1]  42
    x[7]      packing[2]  194
    x[7]      packing[3]  148
    x[7]      packing[4]  59
    x[7]      packing[5]  123
    x[7]      packing[6]  195
    x[7]      packing[7]  147
    x[7]      packing[9]  195
    x[7]      packing[10]  19
    x[7]      packing[11]  133
    x[7]      packing[12]  41
    x[7]      packing[13]  133
    x[7]      packing[14]  145
    x[7]      packing[15]  32
    x[7]      packing[16]  103
    x[7]      packing[17]  14
    x[7]      packing[18]  7
    x[7]      packing[19]  177
    x[7]      packing[20]  181
    x[7]      packing[21]  175
    x[7]      packing[22]  168
    x[7]      packing[23]  171
    x[7]      packing[24]  110
    x[7]      packing[25]  80
    x[7]      packing[27]  132
    x[7]      packing[28]  178
    x[7]      packing[30]  173
    x[7]      packing[31]  192
    x[7]      packing[32]  68
    x[7]      packing[33]  62
    x[7]      packing[34]  155
    x[7]      packing[35]  65
    x[7]      packing[38]  194
    x[7]      packing[39]  136
    x[7]      packing[40]  107
    x[7]      packing[41]  139
    x[7]      packing[43]  171
    x[7]      packing[44]  100
    x[7]      packing[45]  41
    x[7]      packing[46]  147
    x[7]      packing[47]  78
    x[7]      packing[48]  31
    x[7]      packing[49]  33
    x[8]      OBJ       137
    x[8]      packing[0]  144
    x[8]      packing[2]  141
    x[8]      packing[3]  196
    x[8]      packing[4]  14
    x[8]      packing[5]  40
    x[8]      packing[6]  85
    x[8]      packing[7]  185
    x[8]      packing[9]  50
    x[8]      packing[10]  135
    x[8]      packing[11]  127
    x[8]      packing[12]  177
    x[8]      packing[13]  130
    x[8]      packing[16]  193
    x[8]      packing[17]  110
    x[8]      packing[18]  38
    x[8]      packing[19]  152
    x[8]      packing[20]  42
    x[8]      packing[21]  124
    x[8]      packing[22]  33
    x[8]      packing[23]  177
    x[8]      packing[24]  105
    x[8]      packing[25]  133
    x[8]      packing[26]  113
    x[8]      packing[27]  70
    x[8]      packing[28]  12
    x[8]      packing[29]  12
    x[8]      packing[30]  62
    x[8]      packing[31]  72
    x[8]      packing[32]  120
    x[8]      packing[33]  145
    x[8]      packing[34]  125
    x[8]      packing[35]  122
    x[8]      packing[36]  2
    x[8]      packing[37]  51
    x[8]      packing[38]  110
    x[8]      packing[40]  185
    x[8]      packing[41]  5
    x[8]      packing[42]  97
    x[8]      packing[44]  140
    x[8]      packing[45]  12
    x[8]      packing[47]  76
    x[8]      packing[48]  12
    x[8]      packing[49]  55
    x[9]      OBJ       168
    x[9]      packing[0]  81
    x[9]      packing[1]  32
    x[9]      packing[2]  102
    x[9]      packing[3]  151
    x[9]      packing[4]  168
    x[9]      packing[5]  65
    x[9]      packing[6]  182
    x[9]      packing[7]  41
    x[9]      packing[8]  93
    x[9]      packing[9]  24
    x[9]      packing[12]  102
    x[9]      packing[13]  92
    x[9]      packing[17]  162
    x[9]      packing[18]  98
    x[9]      packing[20]  87
    x[9]      packing[21]  72
    x[9]      packing[22]  104
    x[9]      packing[23]  28
    x[9]      packing[24]  47
    x[9]      packing[25]  12
    x[9]      packing[26]  18
    x[9]      packing[27]  55
    x[9]      packing[28]  196
    x[9]      packing[29]  11
    x[9]      packing[30]  128
    x[9]      packing[31]  19
    x[9]      packing[32]  78
    x[9]      packing[34]  150
    x[9]      packing[35]  169
    x[9]      packing[36]  154
    x[9]      packing[37]  112
    x[9]      packing[39]  176
    x[9]      packing[41]  102
    x[9]      packing[42]  68
    x[9]      packing[45]  152
    x[9]      packing[46]  153
    x[9]      packing[47]  97
    x[9]      packing[49]  114
    x[10]     OBJ       112
    x[10]     packing[0]  28
    x[10]     packing[1]  181
    x[10]     packing[3]  172
    x[10]     packing[4]  167
    x[10]     packing[5]  22
    x[10]     packing[6]  151
    x[10]     packing[8]  187
    x[10]     packing[9]  132
    x[10]     packing[12]  17
    x[10]     packing[15]  13
    x[10]     packing[16]  72
    x[10]     packing[17]  58
    x[10]     packing[18]  151
    x[10]     packing[19]  129
    x[10]     packing[20]  42
    x[10]     packing[21]  171
    x[10]     packing[22]  142
    x[10]     packing[23]  123
    x[10]     packing[24]  132
    x[10]     packing[27]  60
    x[10]     packing[28]  34
    x[10]     packing[29]  3
    x[10]     packing[31]  76
    x[10]     packing[33]  128
    x[10]     packing[34]  127
    x[10]     packing[35]  118
    x[10]     packing[36]  31
    x[10]     packing[37]  16
    x[10]     packing[38]  178
    x[10]     packing[39]  130
    x[10]     packing[40]  103
    x[10]     packing[41]  186
    x[10]     packing[43]  131
    x[10]     packing[44]  188
    x[10]     packing[45]  150
    x[10]     packing[46]  36
    x[11]     OBJ       129
    x[11]     packing[0]  189
    x[11]     packing[1]  60
    x[11]     packing[2]  126
    x[11]     packing[3]  116
    x[11]     packing[4]  14
    x[11]     packing[5]  131
    x[11]     packing[6]  172
    x[11]     packing[7]  109
    x[11]     packing[8]  123
    x[11]     packing[9]  50
    x[11]     packing[10]  111
    x[11]     packing[11]  143
    x[11]     packing[12]  194
    x[11]     packing[13]  192
    x[11]     packing[14]  60
    x[11]     packing[15]  194
    x[11]     packing[18]  77
    x[11]     packing[19]  96
    x[11]     packing[21]  161
    x[11]     packing[22]  164
    x[11]     packing[23]  140
    x[11]     packing[24]  143
    x[11]     packing[26]  137
    x[11]     packing[27]  88
    x[11]     packing[28]  181
    x[11]     packing[30]  83
    x[11]     packing[31]  179
    x[11]     packing[32]  52
    x[11]     packing[33]  117
    x[11]     packing[35]  157
    x[11]     packing[37]  3
    x[11]     packing[39]  45
    x[11]     packing[41]  16
    x[11]     packing[42]  132
    x[11]     packing[45]  27
    x[11]     packing[47]  76
    x[11]     packing[48]  16
    x[11]     packing[49]  75
    x[12]     OBJ       151
    x[12]     packing[0]  90
    x[12]     packing[1]  118
    x[12]     packing[2]  52
    x[12]     packing[3]  137
    x[12]     packing[5]  161
    x[12]     packing[6]  2
    x[12]     packing[7]  93
    x[12]     packing[8]  44
    x[12]     packing[9]  26
    x[12]     packing[11]  89
    x[12]     packing[12]  161
    x[12]     packing[13]  145
    x[12]     packing[16]  18
    x[12]     packing[19]  189
    x[12]     packing[20]  163
    x[12]     packing[22]  190
    x[12]     packing[23]  147
    x[12]     packing[24]  14
    x[12]     packing[25]  52
    x[12]     packing[27]  181
    x[12]     packing[28]  68
    x[12]     packing[31]  166
    x[12]     packing[32]  57
    x[12]     packing[33]  170
    x[12]     packing[34]  179
    x[12]     packing[35]  159
    x[12]     packing[37]  134
    x[12]     packing[39]  156
    x[12]     packing[40]  51
    x[12]     packing[41]  74
    x[12]     packing[42]  17
    x[12]     packing[43]  155
    x[12]     packing[45]  44
    x[12]     packing[46]  9
    x[12]     packing[47]  179
    x[12]     packing[49]  54
    x[13]     OBJ       101
    x[13]     packing[0]  155
    x[13]     packing[1]  44
    x[13]     packing[2]  193
    x[13]     packing[6]  37
    x[13]     packing[7]  43
    x[13]     packing[8]  146
    x[13]     packing[9]  83
    x[13]     packing[10]  128
    x[13]     packing[12]  147
    x[13]     packing[14]  31
    x[13]     packing[16]  152
    x[13]     packing[19]  99
    x[13]     packing[21]  25
    x[13]     packing[22]  3
    x[13]     packing[23]  30
    x[13]     packing[24]  177
    x[13]     packing[25]  72
    x[13]     packing[27]  10
    x[13]     packing[28]  180
    x[13]     packing[30]  191
    x[13]     packing[32]  166
    x[13]     packing[33]  84
    x[13]     packing[35]  16
    x[13]     packing[36]  22
    x[13]     packing[37]  14
    x[13]     packing[39]  131
    x[13]     packing[41]  109
    x[13]     packing[42]  166
    x[13]     packing[43]  117
    x[13]     packing[44]  66
    x[13]     packing[45]  89
    x[13]     packing[46]  117
    x[13]     packing[47]  141
    x[13]     packing[48]  34
    x[13]     packing[49]  186
    x[14]     OBJ       46
    x[14]     packing[2]  112
    x[14]     packing[4]  135
    x[14]     packing[5]  21
    x[14]     packing[6]  107
    x[14]     packing[7]  184
    x[14]     packing[8]  71
    x[14]     packing[9]  196
    x[14]     packing[10]  103
    x[14]     packing[11]  95
    x[14]     packing[12]  135
    x[14]     packing[13]  85
    x[14]     packing[14]  74
    x[14]     packing[17]  142
    x[14]     packing[18]  31
    x[14]     packing[19]  99
    x[14]     packing[20]  43
    x[14]     packing[21]  50
    x[14]     packing[22]  165
    x[14]     packing[23]  4
    x[14]     packing[24]  21
    x[14]     packing[25]  8
    x[14]     packing[28]  90
    x[14]     packing[30]  169
    x[14]     packing[31]  20
    x[14]     packing[33]  97
    x[14]     packing[34]  164
    x[14]     packing[35]  156
    x[14]     packing[36]  97
    x[14]     packing[37]  91
    x[14]     packing[38]  120
    x[14]     packing[41]  19
    x[14]     packing[42]  99
    x[14]     packing[45]  144
    x[14]     packing[46]  96
    x[14]     packing[47]  36
    x[14]     packing[48]  77
    x[14]     packing[49]  94
    x[15]     OBJ       172
    x[15]     packing[0]  100
    x[15]     packing[1]  39
    x[15]     packing[2]  58
    x[15]     packing[3]  143
    x[15]     packing[4]  141
    x[15]     packing[5]  8
    x[15]     packing[7]  3
    x[15]     packing[8]  85
    x[15]     packing[9]  154
    x[15]     packing[10]  155
    x[15]     packing[11]  74
    x[15]     packing[14]  171
    x[15]     packing[15]  80
    x[15]     packing[16]  160
    x[15]     packing[17]  44
    x[15]     packing[19]  98
    x[15]     packing[20]  127
    x[15]     packing[21]  112
    x[15]     packing[22]  2
    x[15]     packing[23]  70
    x[15]     packing[28]  32
    x[15]     packing[32]  80
    x[15]     packing[33]  194
    x[15]     packing[34]  26
    x[15]     packing[36]  141
    x[15]     packing[39]  99
    x[15]     packing[40]  34
    x[15]     packing[41]  52
    x[15]     packing[42]  47
    x[15]     packing[43]  22
    x[15]     packing[44]  161
    x[15]     packing[45]  76
    x[15]     packing[47]  29
    x[15]     packing[49]  159
    x[15]     R51       1
    x[16]     OBJ       132
    x[16]     packing[0]  48
    x[16]     packing[1]  185
    x[16]     packing[2]  155
    x[16]     packing[4]  57
    x[16]     packing[5]  53
    x[16]     packing[6]  25
    x[16]     packing[8]  195
    x[16]     packing[10]  119
    x[16]     packing[11]  23
    x[16]     packing[12]  27
    x[16]     packing[13]  62
    x[16]     packing[14]  123
    x[16]     packing[15]  72
    x[16]     packing[16]  141
    x[16]     packing[18]  153
    x[16]     packing[19]  58
    x[16]     packing[20]  52
    x[16]     packing[21]  72
    x[16]     packing[22]  61
    x[16]     packing[23]  154
    x[16]     packing[25]  108
    x[16]     packing[27]  148
    x[16]     packing[28]  134
    x[16]     packing[29]  143
    x[16]     packing[30]  1
    x[16]     packing[31]  24
    x[16]     packing[33]  130
    x[16]     packing[34]  145
    x[16]     packing[35]  88
    x[16]     packing[36]  160
    x[16]     packing[39]  103
    x[16]     packing[40]  92
    x[16]     packing[42]  86
    x[16]     packing[43]  132
    x[16]     packing[44]  83
    x[16]     packing[46]  128
    x[16]     packing[47]  63
    x[16]     packing[48]  26
    x[17]     OBJ       170
    x[17]     packing[0]  146
    x[17]     packing[3]  115
    x[17]     packing[6]  35
    x[17]     packing[8]  142
    x[17]     packing[9]  64
    x[17]     packing[11]  15
    x[17]     packing[12]  38
    x[17]     packing[14]  116
    x[17]     packing[18]  86
    x[17]     packing[19]  18
    x[17]     packing[20]  24
    x[17]     packing[21]  27
    x[17]     packing[22]  144
    x[17]     packing[24]  46
    x[17]     packing[25]  99
    x[17]     packing[26]  126
    x[17]     packing[28]  181
    x[17]     packing[30]  166
    x[17]     packing[32]  111
    x[17]     packing[34]  116
    x[17]     packing[36]  61
    x[17]     packing[37]  4
    x[17]     packing[38]  4
    x[17]     packing[39]  188
    x[17]     packing[40]  142
    x[17]     packing[41]  170
    x[17]     packing[42]  119
    x[17]     packing[43]  196
    x[17]     packing[44]  122
    x[17]     packing[45]  47
    x[17]     packing[46]  107
    x[17]     packing[47]  112
    x[17]     packing[48]  21
    x[17]     packing[49]  139
    x[17]     R51       1
    x[18]     OBJ       42
    x[18]     packing[0]  122
    x[18]     packing[1]  48
    x[18]     packing[2]  67
    x[18]     packing[3]  129
    x[18]     packing[4]  139
    x[18]     packing[5]  52
    x[18]     packing[6]  32
    x[18]     packing[7]  3
    x[18]     packing[8]  38
    x[18]     packing[10]  148
    x[18]     packing[11]  2
    x[18]     packing[13]  154
    x[18]     packing[14]  19
    x[18]     packing[15]  170
    x[18]     packing[16]  61
    x[18]     packing[17]  50
    x[18]     packing[18]  93
    x[18]     packing[20]  135
    x[18]     packing[21]  87
    x[18]     packing[22]  54
    x[18]     packing[25]  83
    x[18]     packing[26]  73
    x[18]     packing[27]  174
    x[18]     packing[28]  101
    x[18]     packing[32]  78
    x[18]     packing[33]  67
    x[18]     packing[34]  101
    x[18]     packing[35]  45
    x[18]     packing[36]  127
    x[18]     packing[38]  4
    x[18]     packing[39]  1
    x[18]     packing[41]  40
    x[18]     packing[42]  186
    x[18]     packing[44]  114
    x[18]     packing[46]  35
    x[18]     packing[47]  59
    x[18]     packing[48]  168
    x[18]     packing[49]  13
    x[19]     OBJ       121
    x[19]     packing[1]  139
    x[19]     packing[2]  182
    x[19]     packing[3]  15
    x[19]     packing[4]  199
    x[19]     packing[6]  71
    x[19]     packing[7]  70
    x[19]     packing[8]  89
    x[19]     packing[9]  184
    x[19]     packing[10]  27
    x[19]     packing[11]  162
    x[19]     packing[12]  60
    x[19]     packing[13]  45
    x[19]     packing[14]  105
    x[19]     packing[15]  83
    x[19]     packing[16]  2
    x[19]     packing[17]  56
    x[19]     packing[18]  199
    x[19]     packing[19]  182
    x[19]     packing[22]  174
    x[19]     packing[23]  160
    x[19]     packing[25]  151
    x[19]     packing[28]  38
    x[19]     packing[29]  70
    x[19]     packing[30]  118
    x[19]     packing[31]  85
    x[19]     packing[32]  36
    x[19]     packing[35]  155
    x[19]     packing[36]  92
    x[19]     packing[37]  133
    x[19]     packing[39]  172
    x[19]     packing[40]  62
    x[19]     packing[41]  130
    x[19]     packing[43]  87
    x[19]     packing[44]  42
    x[19]     packing[46]  164
    x[19]     packing[47]  149
    x[19]     packing[48]  111
    x[19]     packing[49]  80
    x[20]     OBJ       92
    x[20]     packing[0]  69
    x[20]     packing[1]  134
    x[20]     packing[2]  97
    x[20]     packing[3]  159
    x[20]     packing[4]  42
    x[20]     packing[5]  92
    x[20]     packing[7]  40
    x[20]     packing[8]  10
    x[20]     packing[9]  36
    x[20]     packing[11]  129
    x[20]     packing[12]  30
    x[20]     packing[13]  142
    x[20]     packing[14]  8
    x[20]     packing[15]  30
    x[20]     packing[16]  59
    x[20]     packing[17]  156
    x[20]     packing[20]  173
    x[20]     packing[23]  197
    x[20]     packing[24]  67
    x[20]     packing[25]  69
    x[20]     packing[26]  83
    x[20]     packing[28]  190
    x[20]     packing[30]  47
    x[20]     packing[31]  112
    x[20]     packing[33]  81
    x[20]     packing[35]  34
    x[20]     packing[36]  12
    x[20]     packing[37]  62
    x[20]     packing[38]  43
    x[20]     packing[39]  122
    x[20]     packing[41]  172
    x[20]     packing[43]  168
    x[20]     packing[44]  118
    x[20]     packing[46]  18
    x[20]     packing[47]  71
    x[20]     packing[49]  38
    MARKER    'MARKER'                 'INTEND'
RHS
    RHS1      packing[0]  763
    RHS1      packing[1]  907
    RHS1      packing[2]  938
    RHS1      packing[3]  949
    RHS1      packing[4]  794
    RHS1      packing[5]  646
    RHS1      packing[6]  819
    RHS1      packing[7]  829
    RHS1      packing[8]  789
    RHS1      packing[9]  824
    RHS1      packing[10]  660
    RHS1      packing[11]  626
    RHS1      packing[12]  942
    RHS1      packing[13]  709
    RHS1      packing[14]  636
    RHS1      packing[15]  598
    RHS1      packing[16]  687
    RHS1      packing[17]  781
    RHS1      packing[18]  751
    RHS1      packing[19]  926
    RHS1      packing[20]  699
    RHS1      packing[21]  706
    RHS1      packing[22]  931
    RHS1      packing[23]  991
    RHS1      packing[24]  524
    RHS1      packing[25]  714
    RHS1      packing[26]  497
    RHS1      packing[27]  747
    RHS1      packing[28]  940
    RHS1      packing[29]  418
    RHS1      packing[30]  673
    RHS1      packing[31]  539
    RHS1      packing[32]  785
    RHS1      packing[33]  893
    RHS1      packing[34]  816
    RHS1      packing[35]  837
    RHS1      packing[36]  821
    RHS1      packing[37]  554
    RHS1      packing[38]  652
    RHS1      packing[39]  959
    RHS1      packing[40]  621
    RHS1      packing[41]  908
    RHS1      packing[42]  914
    RHS1      packing[43]  914
    RHS1      packing[44]  805
    RHS1      packing[45]  575
    RHS1      packing[46]  722
    RHS1      packing[47]  768
    RHS1      packing[48]  464
    RHS1      packing[49]  795
    RHS1      R51       5
BOUNDS
 BV BND1      x[1]    
 BV BND1      x[2]    
 BV BND1      x[3]    
 BV BND1      x[4]    
 BV BND1      x[5]    
 BV BND1      x[6]    
 BV BND1      x[7]    
 BV BND1      x[8]    
 BV BND1      x[9]    
 BV BND1      x[10]   
 BV BND1      x[11]   
 BV BND1      x[12]   
 BV BND1      x[13]   
 BV BND1      x[14]   
 BV BND1      x[15]   
 BV BND1      x[16]   
 BV BND1      x[17]   
 BV BND1      x[18]   
 BV BND1      x[19]   
 BV BND1      x[20]   
ENDATA
